data/results/2026_03_24_00_45_31_set_prova_set_prova_set_s007_g003_max.sol
# Objective value = 54
c_n0n9n10n11 4
c_n2n3n5n12 4
c_n3n5n10 2
c_n1n3n6n10 4
c_n3n6n9n10 3
c_n5n10n11 1
c_n9n10n11 3
c_n0n10n11 2
c_n0n9n11 3
c_n0n9n10 2
c_n3n5n12 2
c_n2n5n12 3
c_n2n3n12 2
c_n2n3n5 3
c_n3n6n10 2
c_n1n6n10 3
c_n1n3n10 2
c_n1n3n6 3
c_n6n9n10 3
c_n3n9n10 2
c_n3n6n9 1
y_n0n1 1
y_n1n2 1
y_n0n2 1
y_n1n3 1
y_n0n3 1
y_n1n4 0
y_n0n4 0
y_n1n5 1
y_n0n5 1
y_n1n6 0
y_n0n6 1
y_n1n7 0
y_n0n7 0
y_n1n8 0
y_n0n8 0
y_n1n9 0
y_n0n9 1
y_n1n10 0
y_n0n10 1
y_n1n11 0
y_n0n11 1
y_n1n12 1
y_n0n12 1
y_n2n3 0
y_n2n4 0
y_n2n5 0
y_n2n6 0
y_n2n7 0
y_n2n8 0
y_n2n9 0
y_n2n10 0
y_n2n11 0
y_n2n12 1
y_n3n4 0
y_n3n5 1
y_n3n6 0
y_n3n7 0
y_n3n8 0
y_n3n9 0
y_n3n10 0
y_n3n11 0
y_n3n12 1
y_n4n5 1
y_n4n6 1
y_n4n7 0
y_n4n8 0
y_n4n9 1
y_n4n10 1
y_n4n11 1
y_n4n12 1
y_n5n6 0
y_n5n7 0
y_n5n8 0
y_n5n9 0
y_n5n10 0
y_n5n11 0
y_n5n12 1
y_n6n7 0
y_n6n8 0
y_n6n9 0
y_n6n10 0
y_n6n11 0
y_n6n12 1
y_n7n8 1
y_n7n9 1
y_n7n10 1
y_n7n11 1
y_n7n12 1
y_n8n9 1
y_n8n10 1
y_n8n11 1
y_n8n12 1
y_n9n10 1
y_n9n11 0
y_n9n12 1
y_n10n11 0
y_n10n12 1
y_n11n12 1
pos_n0 3
pos_n1 8
pos_n2 11
pos_n3 9
pos_n4 2
pos_n5 10
pos_n6 7
pos_n7 0
pos_n8 1
pos_n9 5
pos_n10 6
pos_n11 4
pos_n12 12
z_n10n11 0
z_n9n10 1
z_n2n10 0
z_n9n11 1
z_n2n11 0
z_n2n9 0
z_n6n10 1
z_n3n10 0
z_n3n6 0
z_n5n12 0
z_n3n12 0
z_n0n12 0
z_n3n5 1
z_n0n5 0
z_n0n3 0
z_n2n12 1
z_n9n12 0
z_n6n12 0
z_n10n12 0
z_n1n12 0
z_n7n12 0
z_n2n5 1
z_n5n9 0
z_n5n6 0
z_n5n10 0
z_n1n5 0
z_n5n7 0
z_n2n6 0
z_n1n2 0
z_n2n7 0
z_n6n9 0
z_n1n9 0
z_n7n9 0
z_n1n6 1
z_n6n7 0
z_n1n10 0
z_n7n10 0
z_n1n7 0
z_n11n12 0
z_n3n11 0
z_n2n3 0
z_n3n9 0
z_n1n3 1
z_n3n8 0
z_n0n10 0
z_n0n11 1
z_n0n6 0
z_n6n11 0
z_n0n9 0
z_n0n1 0
z_n5n11 0
z_n1n11 0
z_n4n5 0
z_n2n4 0
z_n3n4 0
