logs/2026_03_24_00_45_31_set_prova_set_prova_set_s007_g003_max.log
[2026-03-24T00:45:31.986Z] Pipeline "set_prova_set_prova_set_s007_g003" → 2026_03_24_00_45_31_set_prova_set_prova_set_s007_g003_max.sol
Set parameter WLSAccessID
Set parameter WLSSecret
Set parameter LicenseID to value 2792458
Set parameter LogFile to value "gurobi.log"
Using license file /root/gurobi.lic
Academic license 2792458 - for non-commercial use only - registered to an___@studenti.unipg.it

Gurobi Optimizer version 13.0.1 build v13.0.1rc0 (linux64 - "Ubuntu 24.04.4 LTS")
Copyright (c) 2026, Gurobi Optimization, LLC

Warning: Duplicate section found (read 'binary') - Is a variable name equal to an LP file format keyword?
Warning: Duplicate section found (read 'binary') - Is a variable name equal to an LP file format keyword?
Warning: Duplicate section found (read 'binary') - Is a variable name equal to an LP file format keyword?
Warning: Duplicate section found (read 'binary') - Is a variable name equal to an LP file format keyword?
Warning: Duplicate section found (read 'binary') - Is a variable name equal to an LP file format keyword?
Warning: Duplicate section found (read 'binary') - Is a variable name equal to an LP file format keyword?
Warning: Duplicate section found (read 'binary') - Is a variable name equal to an LP file format keyword?
Warning: Duplicate section found (read 'binary') - Is a variable name equal to an LP file format keyword?
Warning: Duplicate section found (read 'binary') - Is a variable name equal to an LP file format keyword?
Warning: Duplicate section found (read 'binary') - Is a variable name equal to an LP file format keyword?
Warning: Further warnings of this type will be omitted.
Read LP format model from file /root/bgw/data/uploads/2026_03_24_00_45_31_set_prova_set_prova_set_s007_g003_max.lp
Reading time = 0.00 seconds
: 1018 rows, 167 columns, 2805 nonzeros

Using Gurobi shared library /opt/gurobi1301/linux64/lib/libgurobi.so.13.0.1

CPU model: AMD EPYC-Genoa Processor, instruction set [SSE2|AVX|AVX2|AVX512]
Thread count: 16 physical cores, 16 logical processors, using up to 16 threads

Academic license 2792458 - for non-commercial use only - registered to an___@studenti.unipg.it
Optimize a model with 1018 rows, 167 columns and 2805 nonzeros (Max)
Model fingerprint: 0x9c252262
Model has 21 linear objective coefficients
Variable types: 34 continuous, 133 integer (133 binary)
Coefficient statistics:
  Matrix range     [1e+00, 1e+01]
  Objective range  [1e+00, 1e+00]
  Bounds range     [1e+00, 1e+00]
  RHS range        [1e+00, 2e+01]

Found heuristic solution: objective 21.0000000
Presolve removed 392 rows and 57 columns
Presolve time: 0.00s
Presolved: 626 rows, 110 columns, 1978 nonzeros
Variable types: 0 continuous, 110 integer (100 binary)
Found heuristic solution: objective 34.0000000

Root relaxation: objective 9.600000e+01, 179 iterations, 0.00 seconds (0.00 work units)

    Nodes    |    Current Node    |     Objective Bounds      |     Work
 Expl Unexpl |  Obj  Depth IntInf | Incumbent    BestBd   Gap | It/Node Time

     0     0   96.00000    0   53   34.00000   96.00000   182%     -    0s
H    0     0                      36.0000000   96.00000   167%     -    0s
H    0     0                      38.0000000   96.00000   153%     -    0s
H    0     0                      40.0000000   96.00000   140%     -    0s
H    0     0                      41.0000000   96.00000   134%     -    0s
H    0     0                      43.0000000   96.00000   123%     -    0s
H    0     0                      44.0000000   96.00000   118%     -    0s
H    0     0                      47.0000000   96.00000   104%     -    0s
     0     0   96.00000    0   52   47.00000   96.00000   104%     -    0s
     0     0   96.00000    0   51   47.00000   96.00000   104%     -    0s
     0     0   96.00000    0   51   47.00000   96.00000   104%     -    0s
H    0     0                      49.0000000   96.00000  95.9%     -    0s
     0     0   96.00000    0   48   49.00000   96.00000  95.9%     -    0s
     0     0   96.00000    0   48   49.00000   96.00000  95.9%     -    0s
     0     0   96.00000    0   50   49.00000   96.00000  95.9%     -    0s
     0     0   96.00000    0   50   49.00000   96.00000  95.9%     -    0s
H    0     0                      50.0000000   96.00000  92.0%     -    0s
H    0     0                      51.0000000   96.00000  88.2%     -    0s
     0     0   96.00000    0   51   51.00000   96.00000  88.2%     -    0s
     0     0   96.00000    0   50   51.00000   96.00000  88.2%     -    0s
     0     0   96.00000    0   50   51.00000   96.00000  88.2%     -    0s
     0     0   96.00000    0   40   51.00000   96.00000  88.2%     -    0s
     0     0   95.72727    0   52   51.00000   95.72727  87.7%     -    0s
     0     0   95.72727    0   50   51.00000   95.72727  87.7%     -    0s
     0     0   95.45455    0   50   51.00000   95.45455  87.2%     -    0s
     0     0   95.45455    0   50   51.00000   95.45455  87.2%     -    0s
     0     2   95.00000    0   50   51.00000   95.00000  86.3%     -    0s
H   31    41                      52.0000000   95.00000  82.7%  61.5    0s
H   50   102                      54.0000000   95.00000  75.9%  49.7    0s
 89043   918 infeasible   37        54.00000   58.84727  8.98%  23.3    5s

Cutting planes:
  Inf proof: 2

Explored 91631 nodes (2144780 simplex iterations) in 5.09 seconds (6.78 work units)
Thread count was 16 (of 16 available processors)

Solution count 10: 54 54 54 ... 44

Optimal solution found (tolerance 1.00e-04)
Best objective 5.400000000000e+01, best bound 5.400000000000e+01, gap 0.0000%

Wrote result file '/root/bgw/data/results/2026_03_24_00_45_31_set_prova_set_prova_set_s007_g003_max.sol'

